p cnf 24 59
a 4 15 0
e 1 2 3 5 6 7 8 9 10 11 12 13 14 16 17 18 19 20 21 22 23 24 0
3 1 0
3 -2 0
-1 2 -3 0
4 -5 -6 0
-4 5 -6 0
4 5 6 0
-4 -5 6 0
-7 3 0
-7 -6 0
-3 6 7 0
-9 8 0
-9 2 0
-8 -2 9 0
-11 2 0
-11 10 0
-2 -10 11 0
-12 -11 0
-12 -5 0
11 5 12 0
13 -10 0
13 8 0
10 -8 -13 0
14 4 0
14 5 0
-4 -5 -14 0
-13 -14 -15 0
13 14 -15 0
-13 14 15 0
13 -14 15 0
12 15 -16 0
-12 -15 -16 0
12 -15 16 0
-12 15 16 0
18 17 0
18 8 0
-17 -8 -18 0
-19 -16 0
-19 18 0
16 -18 19 0
-20 -9 0
-20 -19 0
9 19 20 0
-22 21 0
-22 4 0
-21 -4 22 0
20 -22 -23 0
-20 22 -23 0
20 22 23 0
-20 -22 23 0
7 -23 -24 0
-7 23 -24 0
7 23 24 0
-7 -23 24 0
-2 -5 11 14 -22 17 0
18 -9 -21 0
21 -4 16 8 -13 0
6 -17 12 23 -11 0
-13 -16 -10 -3 0
24 0
